qbf_easy_train/easy_4786_UNSAT.qdimacs
p cnf 26 68
a 25 14 17 0
e 1 2 3 4 5 6 7 8 9 10 11 12 13 15 16 18 19 20 21 22 23 24 26 0
1 -2 -3 0
-1 2 -3 0
1 2 3 0
-1 -2 3 0
-6 1 0
-6 -5 0
-1 5 6 0
-4 -6 -7 0
4 6 -7 0
-4 6 7 0
4 -6 7 0
-8 -3 0
-8 7 0
3 -7 8 0
11 6 0
11 -10 0
-6 10 -11 0
9 -11 -12 0
-9 11 -12 0
9 11 12 0
-9 -11 12 0
8 12 -13 0
-8 -12 -13 0
8 -12 13 0
-8 12 13 0
-15 2 0
-15 5 0
-2 -5 15 0
16 14 0
16 -15 0
-14 15 -16 0
17 -2 -18 0
-17 2 -18 0
17 2 18 0
-17 -2 18 0
1 18 -19 0
-1 -18 -19 0
1 -18 19 0
-1 18 19 0
-20 -17 0
-20 19 0
17 -19 20 0
21 -20 0
21 17 0
20 -17 -21 0
16 -21 -22 0
-16 21 -22 0
16 21 22 0
-16 -21 22 0
-23 -1 0
-23 -19 0
1 19 23 0
-24 -23 0
-24 -10 0
23 10 24 0
-25 -22 0
-25 -24 0
22 24 25 0
26 13 0
26 -25 0
-13 25 -26 0
-22 1 -9 0
15 18 -12 0
20 -18 -8 19 -7 -16 -9 -12 0
24 -11 -19 25 0
-26 -2 -6 0
-9 19 -1 24 7 0
26 0
