sat_easy_train/easy_4786_UNSAT.dimacs
p cnf 117 395
-1 2 -3 0
1 -2 -3 0
-1 -2 3 0
1 2 3 0
5 3 0
5 4 0
-3 -4 -5 0
-7 -5 0
-7 6 0
5 -6 7 0
-10 -8 0
-10 -9 0
8 9 10 0
-7 -10 -11 0
7 10 -11 0
-7 10 11 0
7 -10 11 0
-13 6 0
-13 12 0
-6 -12 13 0
-11 -13 -14 0
11 13 -14 0
-11 13 14 0
11 -13 14 0
-16 15 0
-16 2 0
-15 -2 16 0
19 17 0
19 18 0
-17 -18 -19 0
-19 -1 -20 0
19 1 -20 0
-19 1 20 0
19 -1 20 0
23 -21 0
23 -22 0
21 22 -23 0
-24 -5 0
-24 23 0
5 -23 24 0
-25 -20 0
-25 -24 0
20 24 25 0
-26 -3 0
-26 9 0
3 -9 26 0
27 21 0
27 -26 0
-21 26 -27 0
-25 27 -28 0
25 -27 -28 0
-25 -27 28 0
25 27 28 0
16 -28 -29 0
-16 28 -29 0
16 28 29 0
-16 -28 29 0
-30 -14 0
-30 29 0
14 -29 30 0
-33 -31 0
-33 -32 0
31 32 33 0
-30 -33 -34 0
30 33 -34 0
-30 33 34 0
30 -33 34 0
-3 1 -35 0
3 -1 -35 0
-3 -1 35 0
3 1 35 0
8 -9 -36 0
-8 9 -36 0
8 9 36 0
-8 -9 36 0
-3 -36 -37 0
3 36 -37 0
-3 36 37 0
3 -36 37 0
35 37 -38 0
-35 -37 -38 0
35 -37 38 0
-35 37 38 0
-39 -22 0
-39 21 0
22 -21 39 0
21 17 -40 0
-21 -17 -40 0
21 -17 40 0
-21 17 40 0
41 40 0
41 25 0
-40 -25 -41 0
39 41 -42 0
-39 -41 -42 0
39 -41 42 0
-39 41 42 0
43 42 0
43 -32 0
-42 32 -43 0
38 -43 -44 0
-38 43 -44 0
38 43 44 0
-38 -43 44 0
45 34 0
45 44 0
-34 -44 -45 0
-46 -17 0
-46 32 0
17 -32 46 0
47 46 0
47 22 0
-46 -22 -47 0
47 -6 -48 0
-47 6 -48 0
47 6 48 0
-47 -6 48 0
49 25 0
49 -3 0
-25 3 -49 0
-35 49 -50 0
35 -49 -50 0
-35 -49 50 0
35 49 50 0
-51 -50 0
-51 22 0
50 -22 51 0
-22 -13 -52 0
22 13 -52 0
-22 13 52 0
22 -13 52 0
53 -51 0
53 52 0
51 -52 -53 0
-54 9 0
-54 1 0
-9 -1 54 0
55 54 0
55 49 0
-54 -49 -55 0
-56 -9 0
-56 39 0
9 -39 56 0
2 57 0
-2 57 0
-56 57 -58 0
56 -57 -58 0
-56 -57 58 0
56 57 58 0
-18 -58 -59 0
18 58 -59 0
-18 58 59 0
18 -58 59 0
60 -13 0
60 -59 0
13 59 -60 0
-55 60 -61 0
55 -60 -61 0
-55 -60 61 0
55 60 61 0
-62 -53 0
-62 61 0
53 -61 62 0
54 -63 -64 0
-54 63 -64 0
54 63 64 0
-54 -63 64 0
65 35 0
65 -64 0
-35 64 -65 0
66 -62 0
66 65 0
62 -65 -66 0
-67 -48 0
-67 66 0
48 -66 67 0
45 -67 -68 0
-45 67 -68 0
45 67 68 0
-45 -67 68 0
69 -24 0
69 -8 0
24 8 -69 0
-60 -11 -70 0
60 11 -70 0
-60 11 70 0
60 -11 70 0
71 69 0
71 -70 0
-69 70 -71 0
-72 6 0
-72 -39 0
-6 39 72 0
73 72 0
73 -2 0
-72 2 -73 0
-71 73 -74 0
71 -73 -74 0
-71 -73 74 0
71 73 74 0
21 -4 -75 0
-21 4 -75 0
21 4 75 0
-21 -4 75 0
-76 74 0
-76 -75 0
-74 75 76 0
-77 -20 -78 0
77 20 -78 0
-77 20 78 0
77 -20 78 0
78 25 -79 0
-78 -25 -79 0
78 -25 79 0
-78 25 79 0
-80 76 0
-80 79 0
-76 -79 80 0
-81 -68 0
-81 -80 0
68 80 81 0
-6 -31 -82 0
6 31 -82 0
-6 31 82 0
6 -31 82 0
-83 82 0
-83 17 0
-82 -17 83 0
54 1 -84 0
-54 -1 -84 0
54 -1 84 0
-54 1 84 0
23 84 -85 0
-23 -84 -85 0
23 -84 85 0
-23 84 85 0
-86 18 0
-86 19 0
-18 -19 86 0
87 -54 0
87 -23 0
54 23 -87 0
-60 -77 -88 0
60 77 -88 0
-60 77 88 0
60 -77 88 0
-89 -84 0
-89 -20 0
84 20 89 0
-25 -89 -90 0
25 89 -90 0
-25 89 90 0
25 -89 90 0
90 -31 -91 0
-90 31 -91 0
90 31 91 0
-90 -31 91 0
-92 -88 0
-92 -91 0
88 91 92 0
-93 -87 0
-93 -92 0
87 92 93 0
-94 -86 0
-94 -93 0
86 93 94 0
95 -2 0
95 -20 0
2 20 -95 0
-13 -89 -96 0
13 89 -96 0
-13 89 96 0
13 -89 96 0
77 12 -97 0
-77 -12 -97 0
77 -12 97 0
-77 12 97 0
58 -97 -98 0
-58 97 -98 0
58 97 98 0
-58 -97 98 0
-99 21 0
-99 98 0
-21 -98 99 0
-49 98 -100 0
49 -98 -100 0
-49 -98 100 0
49 98 100 0
101 -63 0
101 21 0
63 -21 -101 0
102 -100 0
102 -101 0
100 101 -102 0
99 102 -103 0
-99 -102 -103 0
99 -102 103 0
-99 102 103 0
104 -4 0
104 21 0
4 -21 -104 0
-105 6 0
-105 104 0
-6 -104 105 0
103 -105 -106 0
-103 105 -106 0
103 105 106 0
-103 -105 106 0
96 106 -107 0
-96 -106 -107 0
96 -106 107 0
-96 106 107 0
-108 -95 0
-108 -107 0
95 107 108 0
109 -94 0
109 -108 0
94 108 -109 0
85 109 -110 0
-85 -109 -110 0
85 -109 110 0
-85 109 110 0
111 -72 0
111 -63 0
72 63 -111 0
-112 111 0
-112 -20 0
-111 20 112 0
113 -12 0
113 104 0
12 -104 -113 0
-114 112 0
-114 113 0
-112 -113 114 0
115 -110 0
115 114 0
110 -114 -115 0
116 -83 0
116 115 0
83 -115 -116 0
-117 81 0
-117 -116 0
-81 116 117 0
-76 57 0
-70 -23 -28 96 -35 0
-76 107 -24 30 -98 0
66 35 31 53 -112 0
-97 -72 -113 0
92 17 -71 -65 -45 -47 0
-42 -31 96 -56 -100 0
114 18 -57 64 -14 113 0
21 60 49 0
104 116 0
7 78 25 102 0
82 46 31 0
-26 85 -82 -95 -17 40 0
62 22 -77 52 0
110 -13 20 39 -63 0
-83 81 84 0
117 -58 -11 0
-101 29 0
-38 -24 -46 -69 -100 92 0
46 30 35 0
-97 76 7 0
-53 100 2 0
4 -3 -105 0
66 -93 35 -62 -49 -48 0
75 -58 53 0
35 42 -106 0
-43 24 0
108 -111 0
71 -26 0
83 108 43 72 109 -91 0
-3 -34 20 0
61 -53 36 0
-57 -61 110 -114 -103 0
62 -113 -81 -18 0
117 49 -13 -54 0
-99 -8 70 -28 -68 -20 0
-61 -88 0
-41 109 69 80 -75 0
11 104 -37 0
-43 -112 -50 51 -61 -4 0
-38 52 106 0
116 -52 93 0
-6 45 0
-30 -97 -35 94 0
-11 26 13 0
72 38 58 81 36 -110 0
58 99 -77 0
-7 -25 -34 -88 48 0
-102 -7 -50 -114 -96 -5 0
-37 92 113 116 82 -35 0
-114 41 0
117 0
